DATASET = "thpack5";
INSTANCE = "011";

WIDTH = 233;
HEIGHT = 220;
LENGTH = 587;

NO_OF_SHAPES = 12;
size = [|
  74,63,61 |
  71,60,25 |
  106,80,59 |
  109,76,42 |
  118,56,22 |
  105,67,43 |
  72,65,37 |
  84,59,54 |
  91,69,26 |
  69,31,28 |
  76,67,37 |
  48,39,25 |
|];

verticality = [|
  1,1,1 |
  0,0,1 |
  1,1,1 |
  0,1,1 |
  0,0,1 |
  0,1,1 |
  1,1,1 |
  1,1,1 |
  0,0,1 |
  0,1,1 |
  0,1,1 |
  1,1,1 |
|];

box_count = [
  8,
  15,
  11,
  11,
  8,
  14,
  16,
  10,
  15,
  15,
  12,
  9,
];
